
Gurobi 10.0.1 (linux64) logging started Sun Nov 26 15:50:12 2023

Set parameter LogFile to value "ArtificialInstance/ExperimentV2/S2T4K2/AdRo/gurobiDoRo79.txt"
Gurobi Optimizer version 10.0.1 build v10.0.1rc0 (linux64)

CPU model: AMD EPYC 7H12 64-Core Processor, instruction set [SSE2|AVX|AVX2]
Thread count: 128 physical cores, 128 logical processors, using up to 32 threads

Academic license 656792 - for non-commercial use only - registered to b.___@student.vu.nl
Optimize a model with 6812 rows, 6490 columns and 25091 nonzeros
Model fingerprint: 0x6ed938b7
Variable types: 1 continuous, 6489 integer (6489 binary)
Coefficient statistics:
  Matrix range     [1e+00, 4e+01]
  Objective range  [1e+00, 2e+01]
  Bounds range     [1e+00, 1e+00]
  RHS range        [1e+00, 1e+00]
Presolve removed 3260 rows and 3037 columns
Presolve time: 0.08s
Presolved: 3552 rows, 3453 columns, 13441 nonzeros
Variable types: 1 continuous, 3452 integer (3452 binary)

Root relaxation: objective 9.954905e+01, 1089 iterations, 0.03 seconds (0.02 work units)

    Nodes    |    Current Node    |     Objective Bounds      |     Work
 Expl Unexpl |  Obj  Depth IntInf | Incumbent    BestBd   Gap | It/Node Time

     0     0   99.54905    0    9          -   99.54905      -     -    0s
H    0     0                      99.5490484   99.54905  0.00%     -    0s

Explored 1 nodes (1089 simplex iterations) in 0.16 seconds (0.11 work units)
Thread count was 32 (of 128 available processors)

Solution count 1: 99.549 

Optimal solution found (tolerance 1.00e-04)
Best objective 9.954904835606e+01, best bound 9.954904835606e+01, gap 0.0000%
